
Gurobi 6.0.5 (linux64) logging started Mon Oct 23 09:33:54 2017


Gurobi 6.0.5 (linux64) logging started Mon Oct 23 09:33:58 2017


Gurobi 6.0.5 (linux64) logging started Mon Oct 23 09:34:02 2017


Gurobi 6.0.5 (linux64) logging started Mon Oct 23 09:34:49 2017


Gurobi 6.0.5 (linux64) logging started Mon Oct 23 09:34:53 2017


Gurobi 6.0.5 (linux64) logging started Mon Oct 23 09:34:57 2017


Gurobi 7.5.1 (linux64, Python) logging started Mon Oct 23 12:21:29 2017

Academic license - for non-commercial use only
Changed value of parameter LogToConsole to 0
   Prev: 1  Min: 0  Max: 1  Default: 1

Gurobi 7.5.1 (linux64, Python) logging started Mon Oct 23 12:21:43 2017

Academic license - for non-commercial use only
Changed value of parameter LogToConsole to 0
   Prev: 1  Min: 0  Max: 1  Default: 1

Gurobi 7.5.1 (linux64, Python) logging started Tue Oct 24 12:39:05 2017

Academic license - for non-commercial use only
Changed value of parameter LogToConsole to 0
   Prev: 1  Min: 0  Max: 1  Default: 1

Gurobi 7.5.1 (linux64, Python) logging started Tue Oct 24 12:39:13 2017

Academic license - for non-commercial use only
Changed value of parameter LogToConsole to 0
   Prev: 1  Min: 0  Max: 1  Default: 1

Gurobi 7.5.1 (linux64, Python) logging started Tue Oct 24 14:36:45 2017

Academic license - for non-commercial use only
Changed value of parameter LogToConsole to 0
   Prev: 1  Min: 0  Max: 1  Default: 1

Gurobi 7.5.1 (linux64, Python) logging started Tue Oct 24 14:36:56 2017

Academic license - for non-commercial use only
Changed value of parameter LogToConsole to 0
   Prev: 1  Min: 0  Max: 1  Default: 1

Gurobi 7.5.1 (linux64, Python) logging started Wed Oct 25 12:16:20 2017

Academic license - for non-commercial use only
Changed value of parameter LogToConsole to 0
   Prev: 1  Min: 0  Max: 1  Default: 1

Gurobi 7.5.1 (linux64, Python) logging started Wed Oct 25 12:16:27 2017

Academic license - for non-commercial use only
Changed value of parameter LogToConsole to 0
   Prev: 1  Min: 0  Max: 1  Default: 1
